
  12    4
  10   10   10   10

   0   0   0   0   0   3 2 3 4 
   5  10  10  10  10   2 7 5 
   6  10  10  10  10   2 7 5 
   8  10  10  10  10   2 7 5 
   1  10  10  10  10   1 6 
   6  10  10  10  10   2 9 8 
   5  10  10  10  10   1 8 
   6  10  10  10  10   2 11 10 
   1  10  10  10  10   1 10 
   8  10  10  10  10   1 12
   4  10  10  10  10   1 12
   0   0   0   0   0   0 
